228016
228016
228016
228016
228016
228016
228016
228016
228016
228016
228016
222143
222143
220426
220426
220426
220426
220426
220426
220426
219406
217648
217648
216907
215803
215803
213748
213517
213308
213308
213308
211229
210239
210239
208992
208992
208992
208992
208992
206536
203597
203597
203597
201002
201002
201002
201002
201002
201002
201002
201002
200929
200686
200686
200686
200686
200686
200374
200374
200374
199670
199526
199526
199526
199526
199526
198218
198218
198218
198218
198218
198218
198218
198218
198218
197261
197261
197261
197261
197261
197261
197261
197261
197261
197261
197261
196343
196343
196343
196147
196147
196147
196147
196147
195514
194749
194749
194749
194749
194749
